\* shift *\
Maximize
OBJ: 2 Afternoon_0_14 + Afternoon_0_15 + 2 Afternoon_0_2 + 2 Afternoon_0_20
 + Afternoon_0_21 + Afternoon_0_3 + 2 Afternoon_0_8 + Afternoon_0_9
 + Afternoon_1_1 + Afternoon_1_10 + Afternoon_1_13 + Afternoon_1_15
 + Afternoon_1_16 + Afternoon_1_19 + Afternoon_1_21 + Afternoon_1_22
 + Afternoon_1_3 + Afternoon_1_4 + Afternoon_1_7 + Afternoon_1_9
 + Afternoon_2_0 + Afternoon_2_11 + Afternoon_2_12 + 2 Afternoon_2_14
 + Afternoon_2_15 + Afternoon_2_17 + Afternoon_2_18 + 2 Afternoon_2_2
 + 2 Afternoon_2_20 + Afternoon_2_21 + Afternoon_2_23 + Afternoon_2_3
 + Afternoon_2_5 + Afternoon_2_6 + 2 Afternoon_2_8 + Afternoon_2_9
 + 2 Afternoon_3_0 + Afternoon_3_11 + 2 Afternoon_3_12 + Afternoon_3_14
 + 2 Afternoon_3_15 + Afternoon_3_17 + 2 Afternoon_3_18 + Afternoon_3_2
 + Afternoon_3_20 + 2 Afternoon_3_21 + Afternoon_3_23 + 2 Afternoon_3_3
 + Afternoon_3_5 + 2 Afternoon_3_6 + Afternoon_3_8 + 2 Afternoon_3_9
 + Afternoon_4_11 + Afternoon_4_14 + Afternoon_4_17 + Afternoon_4_2
 + Afternoon_4_20 + Afternoon_4_23 + Afternoon_4_5 + Afternoon_4_8
 + Afternoon_5_1 + Afternoon_5_10 + Afternoon_5_13 + Afternoon_5_14
 + Afternoon_5_16 + Afternoon_5_19 + Afternoon_5_2 + Afternoon_5_22
 + Afternoon_5_4 + Afternoon_5_7 + 2 Afternoon_6_0 + 2 Afternoon_6_12
 + 2 Afternoon_6_15 + 2 Afternoon_6_18 + 2 Afternoon_6_21 + 2 Afternoon_6_3
 + 2 Afternoon_6_6 + 2 Afternoon_6_9 + 2 Evening_0_0 + Evening_0_10
 + 2 Evening_0_12 + Evening_0_16 + 2 Evening_0_18 + Evening_0_22 + Evening_0_4
 + 2 Evening_0_6 + 2 Evening_1_0 + Evening_1_10 + 2 Evening_1_12
 + Evening_1_16 + 2 Evening_1_18 + Evening_1_22 + Evening_1_4 + 2 Evening_1_6
 + 2 Evening_2_0 + 2 Evening_2_1 + 2 Evening_2_10 + Evening_2_11
 + 2 Evening_2_12 + 2 Evening_2_13 + Evening_2_14 + Evening_2_15
 + 2 Evening_2_16 + Evening_2_17 + 2 Evening_2_18 + 2 Evening_2_19
 + Evening_2_2 + Evening_2_20 + Evening_2_21 + 2 Evening_2_22 + Evening_2_23
 + Evening_2_3 + 2 Evening_2_4 + Evening_2_5 + 2 Evening_2_6 + 2 Evening_2_7
 + Evening_2_8 + Evening_2_9 + Evening_3_0 + 2 Evening_3_1 + 2 Evening_3_10
 + Evening_3_11 + Evening_3_12 + 2 Evening_3_13 + 2 Evening_3_14
 + 2 Evening_3_16 + Evening_3_17 + Evening_3_18 + 2 Evening_3_19
 + 2 Evening_3_2 + 2 Evening_3_20 + 2 Evening_3_22 + Evening_3_23
 + 2 Evening_3_4 + Evening_3_5 + Evening_3_6 + 2 Evening_3_7 + 2 Evening_3_8
 + Evening_4_1 + 2 Evening_4_10 + Evening_4_11 + Evening_4_13 + Evening_4_14
 + 2 Evening_4_16 + Evening_4_17 + Evening_4_19 + Evening_4_2 + Evening_4_20
 + 2 Evening_4_22 + Evening_4_23 + 2 Evening_4_4 + Evening_4_5 + Evening_4_7
 + Evening_4_8 + 2 Evening_5_11 + 2 Evening_5_15 + 2 Evening_5_17
 + 2 Evening_5_21 + 2 Evening_5_23 + 2 Evening_5_3 + 2 Evening_5_5
 + 2 Evening_5_9 + Evening_6_0 + 2 Evening_6_1 + Evening_6_12 + 2 Evening_6_13
 + Evening_6_18 + 2 Evening_6_19 + Evening_6_6 + 2 Evening_6_7 + 2 Morning_0_0
 + Morning_0_11 + 2 Morning_0_12 + Morning_0_15 + Morning_0_17
 + 2 Morning_0_18 + Morning_0_21 + Morning_0_23 + Morning_0_3 + Morning_0_5
 + 2 Morning_0_6 + Morning_0_9 + 2 Morning_1_0 + 2 Morning_1_10 + Morning_1_11
 + 2 Morning_1_12 + Morning_1_15 + 2 Morning_1_16 + Morning_1_17
 + 2 Morning_1_18 + Morning_1_21 + 2 Morning_1_22 + Morning_1_23 + Morning_1_3
 + 2 Morning_1_4 + Morning_1_5 + 2 Morning_1_6 + Morning_1_9 + Morning_2_0
 + Morning_2_1 + 2 Morning_2_11 + Morning_2_12 + Morning_2_13 + Morning_2_14
 + 2 Morning_2_17 + Morning_2_18 + Morning_2_19 + Morning_2_2 + Morning_2_20
 + 2 Morning_2_23 + 2 Morning_2_5 + Morning_2_6 + Morning_2_7 + Morning_2_8
 + 2 Morning_3_1 + Morning_3_10 + 2 Morning_3_13 + Morning_3_14 + Morning_3_15
 + Morning_3_16 + 2 Morning_3_19 + Morning_3_2 + Morning_3_20 + Morning_3_21
 + Morning_3_22 + Morning_3_3 + Morning_3_4 + 2 Morning_3_7 + Morning_3_8
 + Morning_3_9 + Morning_4_14 + Morning_4_2 + Morning_4_20 + Morning_4_8
 + Morning_5_11 + Morning_5_19 + Morning_5_23 + Morning_5_7 + Morning_6_10
 + Morning_6_16 + Morning_6_22 + Morning_6_4
Subject To
_C1: Afternoon_0_0 + Afternoon_1_0 + Afternoon_2_0 + Afternoon_3_0
 + Afternoon_4_0 + Afternoon_5_0 + Afternoon_6_0 + Evening_0_0 + Evening_1_0
 + Evening_2_0 + Evening_3_0 + Evening_4_0 + Evening_5_0 + Evening_6_0
 + Morning_0_0 + Morning_1_0 + Morning_2_0 + Morning_3_0 + Morning_4_0
 + Morning_5_0 + Morning_6_0 = 1
_C10: Afternoon_0_9 + Afternoon_1_9 + Afternoon_2_9 + Afternoon_3_9
 + Afternoon_4_9 + Afternoon_5_9 + Afternoon_6_9 + Evening_0_9 + Evening_1_9
 + Evening_2_9 + Evening_3_9 + Evening_4_9 + Evening_5_9 + Evening_6_9
 + Morning_0_9 + Morning_1_9 + Morning_2_9 + Morning_3_9 + Morning_4_9
 + Morning_5_9 + Morning_6_9 = 1
_C11: Afternoon_0_10 + Afternoon_1_10 + Afternoon_2_10 + Afternoon_3_10
 + Afternoon_4_10 + Afternoon_5_10 + Afternoon_6_10 + Evening_0_10
 + Evening_1_10 + Evening_2_10 + Evening_3_10 + Evening_4_10 + Evening_5_10
 + Evening_6_10 + Morning_0_10 + Morning_1_10 + Morning_2_10 + Morning_3_10
 + Morning_4_10 + Morning_5_10 + Morning_6_10 = 1
_C12: Afternoon_0_11 + Afternoon_1_11 + Afternoon_2_11 + Afternoon_3_11
 + Afternoon_4_11 + Afternoon_5_11 + Afternoon_6_11 + Evening_0_11
 + Evening_1_11 + Evening_2_11 + Evening_3_11 + Evening_4_11 + Evening_5_11
 + Evening_6_11 + Morning_0_11 + Morning_1_11 + Morning_2_11 + Morning_3_11
 + Morning_4_11 + Morning_5_11 + Morning_6_11 = 1
_C13: Afternoon_0_12 + Afternoon_1_12 + Afternoon_2_12 + Afternoon_3_12
 + Afternoon_4_12 + Afternoon_5_12 + Afternoon_6_12 + Evening_0_12
 + Evening_1_12 + Evening_2_12 + Evening_3_12 + Evening_4_12 + Evening_5_12
 + Evening_6_12 + Morning_0_12 + Morning_1_12 + Morning_2_12 + Morning_3_12
 + Morning_4_12 + Morning_5_12 + Morning_6_12 = 1
_C14: Afternoon_0_13 + Afternoon_1_13 + Afternoon_2_13 + Afternoon_3_13
 + Afternoon_4_13 + Afternoon_5_13 + Afternoon_6_13 + Evening_0_13
 + Evening_1_13 + Evening_2_13 + Evening_3_13 + Evening_4_13 + Evening_5_13
 + Evening_6_13 + Morning_0_13 + Morning_1_13 + Morning_2_13 + Morning_3_13
 + Morning_4_13 + Morning_5_13 + Morning_6_13 = 1
_C15: Afternoon_0_14 + Afternoon_1_14 + Afternoon_2_14 + Afternoon_3_14
 + Afternoon_4_14 + Afternoon_5_14 + Afternoon_6_14 + Evening_0_14
 + Evening_1_14 + Evening_2_14 + Evening_3_14 + Evening_4_14 + Evening_5_14
 + Evening_6_14 + Morning_0_14 + Morning_1_14 + Morning_2_14 + Morning_3_14
 + Morning_4_14 + Morning_5_14 + Morning_6_14 = 1
_C16: Afternoon_0_15 + Afternoon_1_15 + Afternoon_2_15 + Afternoon_3_15
 + Afternoon_4_15 + Afternoon_5_15 + Afternoon_6_15 + Evening_0_15
 + Evening_1_15 + Evening_2_15 + Evening_3_15 + Evening_4_15 + Evening_5_15
 + Evening_6_15 + Morning_0_15 + Morning_1_15 + Morning_2_15 + Morning_3_15
 + Morning_4_15 + Morning_5_15 + Morning_6_15 = 1
_C17: Afternoon_0_16 + Afternoon_1_16 + Afternoon_2_16 + Afternoon_3_16
 + Afternoon_4_16 + Afternoon_5_16 + Afternoon_6_16 + Evening_0_16
 + Evening_1_16 + Evening_2_16 + Evening_3_16 + Evening_4_16 + Evening_5_16
 + Evening_6_16 + Morning_0_16 + Morning_1_16 + Morning_2_16 + Morning_3_16
 + Morning_4_16 + Morning_5_16 + Morning_6_16 = 1
_C18: Afternoon_0_17 + Afternoon_1_17 + Afternoon_2_17 + Afternoon_3_17
 + Afternoon_4_17 + Afternoon_5_17 + Afternoon_6_17 + Evening_0_17
 + Evening_1_17 + Evening_2_17 + Evening_3_17 + Evening_4_17 + Evening_5_17
 + Evening_6_17 + Morning_0_17 + Morning_1_17 + Morning_2_17 + Morning_3_17
 + Morning_4_17 + Morning_5_17 + Morning_6_17 = 1
_C19: Afternoon_0_18 + Afternoon_1_18 + Afternoon_2_18 + Afternoon_3_18
 + Afternoon_4_18 + Afternoon_5_18 + Afternoon_6_18 + Evening_0_18
 + Evening_1_18 + Evening_2_18 + Evening_3_18 + Evening_4_18 + Evening_5_18
 + Evening_6_18 + Morning_0_18 + Morning_1_18 + Morning_2_18 + Morning_3_18
 + Morning_4_18 + Morning_5_18 + Morning_6_18 = 1
_C2: Afternoon_0_1 + Afternoon_1_1 + Afternoon_2_1 + Afternoon_3_1
 + Afternoon_4_1 + Afternoon_5_1 + Afternoon_6_1 + Evening_0_1 + Evening_1_1
 + Evening_2_1 + Evening_3_1 + Evening_4_1 + Evening_5_1 + Evening_6_1
 + Morning_0_1 + Morning_1_1 + Morning_2_1 + Morning_3_1 + Morning_4_1
 + Morning_5_1 + Morning_6_1 = 1
_C20: Afternoon_0_19 + Afternoon_1_19 + Afternoon_2_19 + Afternoon_3_19
 + Afternoon_4_19 + Afternoon_5_19 + Afternoon_6_19 + Evening_0_19
 + Evening_1_19 + Evening_2_19 + Evening_3_19 + Evening_4_19 + Evening_5_19
 + Evening_6_19 + Morning_0_19 + Morning_1_19 + Morning_2_19 + Morning_3_19
 + Morning_4_19 + Morning_5_19 + Morning_6_19 = 1
_C21: Afternoon_0_20 + Afternoon_1_20 + Afternoon_2_20 + Afternoon_3_20
 + Afternoon_4_20 + Afternoon_5_20 + Afternoon_6_20 + Evening_0_20
 + Evening_1_20 + Evening_2_20 + Evening_3_20 + Evening_4_20 + Evening_5_20
 + Evening_6_20 + Morning_0_20 + Morning_1_20 + Morning_2_20 + Morning_3_20
 + Morning_4_20 + Morning_5_20 + Morning_6_20 = 1
_C22: Afternoon_0_21 + Afternoon_1_21 + Afternoon_2_21 + Afternoon_3_21
 + Afternoon_4_21 + Afternoon_5_21 + Afternoon_6_21 + Evening_0_21
 + Evening_1_21 + Evening_2_21 + Evening_3_21 + Evening_4_21 + Evening_5_21
 + Evening_6_21 + Morning_0_21 + Morning_1_21 + Morning_2_21 + Morning_3_21
 + Morning_4_21 + Morning_5_21 + Morning_6_21 = 1
_C23: Afternoon_0_22 + Afternoon_1_22 + Afternoon_2_22 + Afternoon_3_22
 + Afternoon_4_22 + Afternoon_5_22 + Afternoon_6_22 + Evening_0_22
 + Evening_1_22 + Evening_2_22 + Evening_3_22 + Evening_4_22 + Evening_5_22
 + Evening_6_22 + Morning_0_22 + Morning_1_22 + Morning_2_22 + Morning_3_22
 + Morning_4_22 + Morning_5_22 + Morning_6_22 = 1
_C24: Afternoon_0_23 + Afternoon_1_23 + Afternoon_2_23 + Afternoon_3_23
 + Afternoon_4_23 + Afternoon_5_23 + Afternoon_6_23 + Evening_0_23
 + Evening_1_23 + Evening_2_23 + Evening_3_23 + Evening_4_23 + Evening_5_23
 + Evening_6_23 + Morning_0_23 + Morning_1_23 + Morning_2_23 + Morning_3_23
 + Morning_4_23 + Morning_5_23 + Morning_6_23 = 1
_C25: Morning_0_0 + Morning_0_1 + Morning_0_10 + Morning_0_11 + Morning_0_12
 + Morning_0_13 + Morning_0_14 + Morning_0_15 + Morning_0_16 + Morning_0_17
 + Morning_0_18 + Morning_0_19 + Morning_0_2 + Morning_0_20 + Morning_0_21
 + Morning_0_22 + Morning_0_23 + Morning_0_3 + Morning_0_4 + Morning_0_5
 + Morning_0_6 + Morning_0_7 + Morning_0_8 + Morning_0_9 >= 1
_C26: Afternoon_0_0 + Afternoon_0_1 + Afternoon_0_10 + Afternoon_0_11
 + Afternoon_0_12 + Afternoon_0_13 + Afternoon_0_14 + Afternoon_0_15
 + Afternoon_0_16 + Afternoon_0_17 + Afternoon_0_18 + Afternoon_0_19
 + Afternoon_0_2 + Afternoon_0_20 + Afternoon_0_21 + Afternoon_0_22
 + Afternoon_0_23 + Afternoon_0_3 + Afternoon_0_4 + Afternoon_0_5
 + Afternoon_0_6 + Afternoon_0_7 + Afternoon_0_8 + Afternoon_0_9 >= 1
_C27: Evening_0_0 + Evening_0_1 + Evening_0_10 + Evening_0_11 + Evening_0_12
 + Evening_0_13 + Evening_0_14 + Evening_0_15 + Evening_0_16 + Evening_0_17
 + Evening_0_18 + Evening_0_19 + Evening_0_2 + Evening_0_20 + Evening_0_21
 + Evening_0_22 + Evening_0_23 + Evening_0_3 + Evening_0_4 + Evening_0_5
 + Evening_0_6 + Evening_0_7 + Evening_0_8 + Evening_0_9 >= 1
_C28: Morning_0_0 + Morning_0_1 + Morning_0_10 + Morning_0_11 + Morning_0_12
 + Morning_0_13 + Morning_0_14 + Morning_0_15 + Morning_0_16 + Morning_0_17
 + Morning_0_18 + Morning_0_19 + Morning_0_2 + Morning_0_20 + Morning_0_21
 + Morning_0_22 + Morning_0_23 + Morning_0_3 + Morning_0_4 + Morning_0_5
 + Morning_0_6 + Morning_0_7 + Morning_0_8 + Morning_0_9 <= 2
_C29: Afternoon_0_0 + Afternoon_0_1 + Afternoon_0_10 + Afternoon_0_11
 + Afternoon_0_12 + Afternoon_0_13 + Afternoon_0_14 + Afternoon_0_15
 + Afternoon_0_16 + Afternoon_0_17 + Afternoon_0_18 + Afternoon_0_19
 + Afternoon_0_2 + Afternoon_0_20 + Afternoon_0_21 + Afternoon_0_22
 + Afternoon_0_23 + Afternoon_0_3 + Afternoon_0_4 + Afternoon_0_5
 + Afternoon_0_6 + Afternoon_0_7 + Afternoon_0_8 + Afternoon_0_9 <= 2
_C3: Afternoon_0_2 + Afternoon_1_2 + Afternoon_2_2 + Afternoon_3_2
 + Afternoon_4_2 + Afternoon_5_2 + Afternoon_6_2 + Evening_0_2 + Evening_1_2
 + Evening_2_2 + Evening_3_2 + Evening_4_2 + Evening_5_2 + Evening_6_2
 + Morning_0_2 + Morning_1_2 + Morning_2_2 + Morning_3_2 + Morning_4_2
 + Morning_5_2 + Morning_6_2 = 1
_C30: Evening_0_0 + Evening_0_1 + Evening_0_10 + Evening_0_11 + Evening_0_12
 + Evening_0_13 + Evening_0_14 + Evening_0_15 + Evening_0_16 + Evening_0_17
 + Evening_0_18 + Evening_0_19 + Evening_0_2 + Evening_0_20 + Evening_0_21
 + Evening_0_22 + Evening_0_23 + Evening_0_3 + Evening_0_4 + Evening_0_5
 + Evening_0_6 + Evening_0_7 + Evening_0_8 + Evening_0_9 <= 2
_C31: Morning_1_0 + Morning_1_1 + Morning_1_10 + Morning_1_11 + Morning_1_12
 + Morning_1_13 + Morning_1_14 + Morning_1_15 + Morning_1_16 + Morning_1_17
 + Morning_1_18 + Morning_1_19 + Morning_1_2 + Morning_1_20 + Morning_1_21
 + Morning_1_22 + Morning_1_23 + Morning_1_3 + Morning_1_4 + Morning_1_5
 + Morning_1_6 + Morning_1_7 + Morning_1_8 + Morning_1_9 >= 1
_C32: Afternoon_1_0 + Afternoon_1_1 + Afternoon_1_10 + Afternoon_1_11
 + Afternoon_1_12 + Afternoon_1_13 + Afternoon_1_14 + Afternoon_1_15
 + Afternoon_1_16 + Afternoon_1_17 + Afternoon_1_18 + Afternoon_1_19
 + Afternoon_1_2 + Afternoon_1_20 + Afternoon_1_21 + Afternoon_1_22
 + Afternoon_1_23 + Afternoon_1_3 + Afternoon_1_4 + Afternoon_1_5
 + Afternoon_1_6 + Afternoon_1_7 + Afternoon_1_8 + Afternoon_1_9 >= 1
_C33: Evening_1_0 + Evening_1_1 + Evening_1_10 + Evening_1_11 + Evening_1_12
 + Evening_1_13 + Evening_1_14 + Evening_1_15 + Evening_1_16 + Evening_1_17
 + Evening_1_18 + Evening_1_19 + Evening_1_2 + Evening_1_20 + Evening_1_21
 + Evening_1_22 + Evening_1_23 + Evening_1_3 + Evening_1_4 + Evening_1_5
 + Evening_1_6 + Evening_1_7 + Evening_1_8 + Evening_1_9 >= 1
_C34: Morning_1_0 + Morning_1_1 + Morning_1_10 + Morning_1_11 + Morning_1_12
 + Morning_1_13 + Morning_1_14 + Morning_1_15 + Morning_1_16 + Morning_1_17
 + Morning_1_18 + Morning_1_19 + Morning_1_2 + Morning_1_20 + Morning_1_21
 + Morning_1_22 + Morning_1_23 + Morning_1_3 + Morning_1_4 + Morning_1_5
 + Morning_1_6 + Morning_1_7 + Morning_1_8 + Morning_1_9 <= 2
_C35: Afternoon_1_0 + Afternoon_1_1 + Afternoon_1_10 + Afternoon_1_11
 + Afternoon_1_12 + Afternoon_1_13 + Afternoon_1_14 + Afternoon_1_15
 + Afternoon_1_16 + Afternoon_1_17 + Afternoon_1_18 + Afternoon_1_19
 + Afternoon_1_2 + Afternoon_1_20 + Afternoon_1_21 + Afternoon_1_22
 + Afternoon_1_23 + Afternoon_1_3 + Afternoon_1_4 + Afternoon_1_5
 + Afternoon_1_6 + Afternoon_1_7 + Afternoon_1_8 + Afternoon_1_9 <= 2
_C36: Evening_1_0 + Evening_1_1 + Evening_1_10 + Evening_1_11 + Evening_1_12
 + Evening_1_13 + Evening_1_14 + Evening_1_15 + Evening_1_16 + Evening_1_17
 + Evening_1_18 + Evening_1_19 + Evening_1_2 + Evening_1_20 + Evening_1_21
 + Evening_1_22 + Evening_1_23 + Evening_1_3 + Evening_1_4 + Evening_1_5
 + Evening_1_6 + Evening_1_7 + Evening_1_8 + Evening_1_9 <= 2
_C37: Morning_2_0 + Morning_2_1 + Morning_2_10 + Morning_2_11 + Morning_2_12
 + Morning_2_13 + Morning_2_14 + Morning_2_15 + Morning_2_16 + Morning_2_17
 + Morning_2_18 + Morning_2_19 + Morning_2_2 + Morning_2_20 + Morning_2_21
 + Morning_2_22 + Morning_2_23 + Morning_2_3 + Morning_2_4 + Morning_2_5
 + Morning_2_6 + Morning_2_7 + Morning_2_8 + Morning_2_9 >= 1
_C38: Afternoon_2_0 + Afternoon_2_1 + Afternoon_2_10 + Afternoon_2_11
 + Afternoon_2_12 + Afternoon_2_13 + Afternoon_2_14 + Afternoon_2_15
 + Afternoon_2_16 + Afternoon_2_17 + Afternoon_2_18 + Afternoon_2_19
 + Afternoon_2_2 + Afternoon_2_20 + Afternoon_2_21 + Afternoon_2_22
 + Afternoon_2_23 + Afternoon_2_3 + Afternoon_2_4 + Afternoon_2_5
 + Afternoon_2_6 + Afternoon_2_7 + Afternoon_2_8 + Afternoon_2_9 >= 1
_C39: Evening_2_0 + Evening_2_1 + Evening_2_10 + Evening_2_11 + Evening_2_12
 + Evening_2_13 + Evening_2_14 + Evening_2_15 + Evening_2_16 + Evening_2_17
 + Evening_2_18 + Evening_2_19 + Evening_2_2 + Evening_2_20 + Evening_2_21
 + Evening_2_22 + Evening_2_23 + Evening_2_3 + Evening_2_4 + Evening_2_5
 + Evening_2_6 + Evening_2_7 + Evening_2_8 + Evening_2_9 >= 1
_C4: Afternoon_0_3 + Afternoon_1_3 + Afternoon_2_3 + Afternoon_3_3
 + Afternoon_4_3 + Afternoon_5_3 + Afternoon_6_3 + Evening_0_3 + Evening_1_3
 + Evening_2_3 + Evening_3_3 + Evening_4_3 + Evening_5_3 + Evening_6_3
 + Morning_0_3 + Morning_1_3 + Morning_2_3 + Morning_3_3 + Morning_4_3
 + Morning_5_3 + Morning_6_3 = 1
_C40: Morning_2_0 + Morning_2_1 + Morning_2_10 + Morning_2_11 + Morning_2_12
 + Morning_2_13 + Morning_2_14 + Morning_2_15 + Morning_2_16 + Morning_2_17
 + Morning_2_18 + Morning_2_19 + Morning_2_2 + Morning_2_20 + Morning_2_21
 + Morning_2_22 + Morning_2_23 + Morning_2_3 + Morning_2_4 + Morning_2_5
 + Morning_2_6 + Morning_2_7 + Morning_2_8 + Morning_2_9 <= 2
_C41: Afternoon_2_0 + Afternoon_2_1 + Afternoon_2_10 + Afternoon_2_11
 + Afternoon_2_12 + Afternoon_2_13 + Afternoon_2_14 + Afternoon_2_15
 + Afternoon_2_16 + Afternoon_2_17 + Afternoon_2_18 + Afternoon_2_19
 + Afternoon_2_2 + Afternoon_2_20 + Afternoon_2_21 + Afternoon_2_22
 + Afternoon_2_23 + Afternoon_2_3 + Afternoon_2_4 + Afternoon_2_5
 + Afternoon_2_6 + Afternoon_2_7 + Afternoon_2_8 + Afternoon_2_9 <= 2
_C42: Evening_2_0 + Evening_2_1 + Evening_2_10 + Evening_2_11 + Evening_2_12
 + Evening_2_13 + Evening_2_14 + Evening_2_15 + Evening_2_16 + Evening_2_17
 + Evening_2_18 + Evening_2_19 + Evening_2_2 + Evening_2_20 + Evening_2_21
 + Evening_2_22 + Evening_2_23 + Evening_2_3 + Evening_2_4 + Evening_2_5
 + Evening_2_6 + Evening_2_7 + Evening_2_8 + Evening_2_9 <= 2
_C43: Morning_3_0 + Morning_3_1 + Morning_3_10 + Morning_3_11 + Morning_3_12
 + Morning_3_13 + Morning_3_14 + Morning_3_15 + Morning_3_16 + Morning_3_17
 + Morning_3_18 + Morning_3_19 + Morning_3_2 + Morning_3_20 + Morning_3_21
 + Morning_3_22 + Morning_3_23 + Morning_3_3 + Morning_3_4 + Morning_3_5
 + Morning_3_6 + Morning_3_7 + Morning_3_8 + Morning_3_9 >= 1
_C44: Afternoon_3_0 + Afternoon_3_1 + Afternoon_3_10 + Afternoon_3_11
 + Afternoon_3_12 + Afternoon_3_13 + Afternoon_3_14 + Afternoon_3_15
 + Afternoon_3_16 + Afternoon_3_17 + Afternoon_3_18 + Afternoon_3_19
 + Afternoon_3_2 + Afternoon_3_20 + Afternoon_3_21 + Afternoon_3_22
 + Afternoon_3_23 + Afternoon_3_3 + Afternoon_3_4 + Afternoon_3_5
 + Afternoon_3_6 + Afternoon_3_7 + Afternoon_3_8 + Afternoon_3_9 >= 1
_C45: Evening_3_0 + Evening_3_1 + Evening_3_10 + Evening_3_11 + Evening_3_12
 + Evening_3_13 + Evening_3_14 + Evening_3_15 + Evening_3_16 + Evening_3_17
 + Evening_3_18 + Evening_3_19 + Evening_3_2 + Evening_3_20 + Evening_3_21
 + Evening_3_22 + Evening_3_23 + Evening_3_3 + Evening_3_4 + Evening_3_5
 + Evening_3_6 + Evening_3_7 + Evening_3_8 + Evening_3_9 >= 1
_C46: Morning_3_0 + Morning_3_1 + Morning_3_10 + Morning_3_11 + Morning_3_12
 + Morning_3_13 + Morning_3_14 + Morning_3_15 + Morning_3_16 + Morning_3_17
 + Morning_3_18 + Morning_3_19 + Morning_3_2 + Morning_3_20 + Morning_3_21
 + Morning_3_22 + Morning_3_23 + Morning_3_3 + Morning_3_4 + Morning_3_5
 + Morning_3_6 + Morning_3_7 + Morning_3_8 + Morning_3_9 <= 2
_C47: Afternoon_3_0 + Afternoon_3_1 + Afternoon_3_10 + Afternoon_3_11
 + Afternoon_3_12 + Afternoon_3_13 + Afternoon_3_14 + Afternoon_3_15
 + Afternoon_3_16 + Afternoon_3_17 + Afternoon_3_18 + Afternoon_3_19
 + Afternoon_3_2 + Afternoon_3_20 + Afternoon_3_21 + Afternoon_3_22
 + Afternoon_3_23 + Afternoon_3_3 + Afternoon_3_4 + Afternoon_3_5
 + Afternoon_3_6 + Afternoon_3_7 + Afternoon_3_8 + Afternoon_3_9 <= 2
_C48: Evening_3_0 + Evening_3_1 + Evening_3_10 + Evening_3_11 + Evening_3_12
 + Evening_3_13 + Evening_3_14 + Evening_3_15 + Evening_3_16 + Evening_3_17
 + Evening_3_18 + Evening_3_19 + Evening_3_2 + Evening_3_20 + Evening_3_21
 + Evening_3_22 + Evening_3_23 + Evening_3_3 + Evening_3_4 + Evening_3_5
 + Evening_3_6 + Evening_3_7 + Evening_3_8 + Evening_3_9 <= 2
_C49: Morning_4_0 + Morning_4_1 + Morning_4_10 + Morning_4_11 + Morning_4_12
 + Morning_4_13 + Morning_4_14 + Morning_4_15 + Morning_4_16 + Morning_4_17
 + Morning_4_18 + Morning_4_19 + Morning_4_2 + Morning_4_20 + Morning_4_21
 + Morning_4_22 + Morning_4_23 + Morning_4_3 + Morning_4_4 + Morning_4_5
 + Morning_4_6 + Morning_4_7 + Morning_4_8 + Morning_4_9 >= 1
_C5: Afternoon_0_4 + Afternoon_1_4 + Afternoon_2_4 + Afternoon_3_4
 + Afternoon_4_4 + Afternoon_5_4 + Afternoon_6_4 + Evening_0_4 + Evening_1_4
 + Evening_2_4 + Evening_3_4 + Evening_4_4 + Evening_5_4 + Evening_6_4
 + Morning_0_4 + Morning_1_4 + Morning_2_4 + Morning_3_4 + Morning_4_4
 + Morning_5_4 + Morning_6_4 = 1
_C50: Afternoon_4_0 + Afternoon_4_1 + Afternoon_4_10 + Afternoon_4_11
 + Afternoon_4_12 + Afternoon_4_13 + Afternoon_4_14 + Afternoon_4_15
 + Afternoon_4_16 + Afternoon_4_17 + Afternoon_4_18 + Afternoon_4_19
 + Afternoon_4_2 + Afternoon_4_20 + Afternoon_4_21 + Afternoon_4_22
 + Afternoon_4_23 + Afternoon_4_3 + Afternoon_4_4 + Afternoon_4_5
 + Afternoon_4_6 + Afternoon_4_7 + Afternoon_4_8 + Afternoon_4_9 >= 1
_C51: Evening_4_0 + Evening_4_1 + Evening_4_10 + Evening_4_11 + Evening_4_12
 + Evening_4_13 + Evening_4_14 + Evening_4_15 + Evening_4_16 + Evening_4_17
 + Evening_4_18 + Evening_4_19 + Evening_4_2 + Evening_4_20 + Evening_4_21
 + Evening_4_22 + Evening_4_23 + Evening_4_3 + Evening_4_4 + Evening_4_5
 + Evening_4_6 + Evening_4_7 + Evening_4_8 + Evening_4_9 >= 1
_C52: Morning_4_0 + Morning_4_1 + Morning_4_10 + Morning_4_11 + Morning_4_12
 + Morning_4_13 + Morning_4_14 + Morning_4_15 + Morning_4_16 + Morning_4_17
 + Morning_4_18 + Morning_4_19 + Morning_4_2 + Morning_4_20 + Morning_4_21
 + Morning_4_22 + Morning_4_23 + Morning_4_3 + Morning_4_4 + Morning_4_5
 + Morning_4_6 + Morning_4_7 + Morning_4_8 + Morning_4_9 <= 2
_C53: Afternoon_4_0 + Afternoon_4_1 + Afternoon_4_10 + Afternoon_4_11
 + Afternoon_4_12 + Afternoon_4_13 + Afternoon_4_14 + Afternoon_4_15
 + Afternoon_4_16 + Afternoon_4_17 + Afternoon_4_18 + Afternoon_4_19
 + Afternoon_4_2 + Afternoon_4_20 + Afternoon_4_21 + Afternoon_4_22
 + Afternoon_4_23 + Afternoon_4_3 + Afternoon_4_4 + Afternoon_4_5
 + Afternoon_4_6 + Afternoon_4_7 + Afternoon_4_8 + Afternoon_4_9 <= 2
_C54: Evening_4_0 + Evening_4_1 + Evening_4_10 + Evening_4_11 + Evening_4_12
 + Evening_4_13 + Evening_4_14 + Evening_4_15 + Evening_4_16 + Evening_4_17
 + Evening_4_18 + Evening_4_19 + Evening_4_2 + Evening_4_20 + Evening_4_21
 + Evening_4_22 + Evening_4_23 + Evening_4_3 + Evening_4_4 + Evening_4_5
 + Evening_4_6 + Evening_4_7 + Evening_4_8 + Evening_4_9 <= 2
_C55: Morning_5_0 + Morning_5_1 + Morning_5_10 + Morning_5_11 + Morning_5_12
 + Morning_5_13 + Morning_5_14 + Morning_5_15 + Morning_5_16 + Morning_5_17
 + Morning_5_18 + Morning_5_19 + Morning_5_2 + Morning_5_20 + Morning_5_21
 + Morning_5_22 + Morning_5_23 + Morning_5_3 + Morning_5_4 + Morning_5_5
 + Morning_5_6 + Morning_5_7 + Morning_5_8 + Morning_5_9 >= 1
_C56: Afternoon_5_0 + Afternoon_5_1 + Afternoon_5_10 + Afternoon_5_11
 + Afternoon_5_12 + Afternoon_5_13 + Afternoon_5_14 + Afternoon_5_15
 + Afternoon_5_16 + Afternoon_5_17 + Afternoon_5_18 + Afternoon_5_19
 + Afternoon_5_2 + Afternoon_5_20 + Afternoon_5_21 + Afternoon_5_22
 + Afternoon_5_23 + Afternoon_5_3 + Afternoon_5_4 + Afternoon_5_5
 + Afternoon_5_6 + Afternoon_5_7 + Afternoon_5_8 + Afternoon_5_9 >= 1
_C57: Evening_5_0 + Evening_5_1 + Evening_5_10 + Evening_5_11 + Evening_5_12
 + Evening_5_13 + Evening_5_14 + Evening_5_15 + Evening_5_16 + Evening_5_17
 + Evening_5_18 + Evening_5_19 + Evening_5_2 + Evening_5_20 + Evening_5_21
 + Evening_5_22 + Evening_5_23 + Evening_5_3 + Evening_5_4 + Evening_5_5
 + Evening_5_6 + Evening_5_7 + Evening_5_8 + Evening_5_9 >= 1
_C58: Morning_5_0 + Morning_5_1 + Morning_5_10 + Morning_5_11 + Morning_5_12
 + Morning_5_13 + Morning_5_14 + Morning_5_15 + Morning_5_16 + Morning_5_17
 + Morning_5_18 + Morning_5_19 + Morning_5_2 + Morning_5_20 + Morning_5_21
 + Morning_5_22 + Morning_5_23 + Morning_5_3 + Morning_5_4 + Morning_5_5
 + Morning_5_6 + Morning_5_7 + Morning_5_8 + Morning_5_9 <= 2
_C59: Afternoon_5_0 + Afternoon_5_1 + Afternoon_5_10 + Afternoon_5_11
 + Afternoon_5_12 + Afternoon_5_13 + Afternoon_5_14 + Afternoon_5_15
 + Afternoon_5_16 + Afternoon_5_17 + Afternoon_5_18 + Afternoon_5_19
 + Afternoon_5_2 + Afternoon_5_20 + Afternoon_5_21 + Afternoon_5_22
 + Afternoon_5_23 + Afternoon_5_3 + Afternoon_5_4 + Afternoon_5_5
 + Afternoon_5_6 + Afternoon_5_7 + Afternoon_5_8 + Afternoon_5_9 <= 2
_C6: Afternoon_0_5 + Afternoon_1_5 + Afternoon_2_5 + Afternoon_3_5
 + Afternoon_4_5 + Afternoon_5_5 + Afternoon_6_5 + Evening_0_5 + Evening_1_5
 + Evening_2_5 + Evening_3_5 + Evening_4_5 + Evening_5_5 + Evening_6_5
 + Morning_0_5 + Morning_1_5 + Morning_2_5 + Morning_3_5 + Morning_4_5
 + Morning_5_5 + Morning_6_5 = 1
_C60: Evening_5_0 + Evening_5_1 + Evening_5_10 + Evening_5_11 + Evening_5_12
 + Evening_5_13 + Evening_5_14 + Evening_5_15 + Evening_5_16 + Evening_5_17
 + Evening_5_18 + Evening_5_19 + Evening_5_2 + Evening_5_20 + Evening_5_21
 + Evening_5_22 + Evening_5_23 + Evening_5_3 + Evening_5_4 + Evening_5_5
 + Evening_5_6 + Evening_5_7 + Evening_5_8 + Evening_5_9 <= 2
_C61: Morning_6_0 + Morning_6_1 + Morning_6_10 + Morning_6_11 + Morning_6_12
 + Morning_6_13 + Morning_6_14 + Morning_6_15 + Morning_6_16 + Morning_6_17
 + Morning_6_18 + Morning_6_19 + Morning_6_2 + Morning_6_20 + Morning_6_21
 + Morning_6_22 + Morning_6_23 + Morning_6_3 + Morning_6_4 + Morning_6_5
 + Morning_6_6 + Morning_6_7 + Morning_6_8 + Morning_6_9 >= 1
_C62: Afternoon_6_0 + Afternoon_6_1 + Afternoon_6_10 + Afternoon_6_11
 + Afternoon_6_12 + Afternoon_6_13 + Afternoon_6_14 + Afternoon_6_15
 + Afternoon_6_16 + Afternoon_6_17 + Afternoon_6_18 + Afternoon_6_19
 + Afternoon_6_2 + Afternoon_6_20 + Afternoon_6_21 + Afternoon_6_22
 + Afternoon_6_23 + Afternoon_6_3 + Afternoon_6_4 + Afternoon_6_5
 + Afternoon_6_6 + Afternoon_6_7 + Afternoon_6_8 + Afternoon_6_9 >= 1
_C63: Evening_6_0 + Evening_6_1 + Evening_6_10 + Evening_6_11 + Evening_6_12
 + Evening_6_13 + Evening_6_14 + Evening_6_15 + Evening_6_16 + Evening_6_17
 + Evening_6_18 + Evening_6_19 + Evening_6_2 + Evening_6_20 + Evening_6_21
 + Evening_6_22 + Evening_6_23 + Evening_6_3 + Evening_6_4 + Evening_6_5
 + Evening_6_6 + Evening_6_7 + Evening_6_8 + Evening_6_9 >= 1
_C64: Morning_6_0 + Morning_6_1 + Morning_6_10 + Morning_6_11 + Morning_6_12
 + Morning_6_13 + Morning_6_14 + Morning_6_15 + Morning_6_16 + Morning_6_17
 + Morning_6_18 + Morning_6_19 + Morning_6_2 + Morning_6_20 + Morning_6_21
 + Morning_6_22 + Morning_6_23 + Morning_6_3 + Morning_6_4 + Morning_6_5
 + Morning_6_6 + Morning_6_7 + Morning_6_8 + Morning_6_9 <= 2
_C65: Afternoon_6_0 + Afternoon_6_1 + Afternoon_6_10 + Afternoon_6_11
 + Afternoon_6_12 + Afternoon_6_13 + Afternoon_6_14 + Afternoon_6_15
 + Afternoon_6_16 + Afternoon_6_17 + Afternoon_6_18 + Afternoon_6_19
 + Afternoon_6_2 + Afternoon_6_20 + Afternoon_6_21 + Afternoon_6_22
 + Afternoon_6_23 + Afternoon_6_3 + Afternoon_6_4 + Afternoon_6_5
 + Afternoon_6_6 + Afternoon_6_7 + Afternoon_6_8 + Afternoon_6_9 <= 2
_C66: Evening_6_0 + Evening_6_1 + Evening_6_10 + Evening_6_11 + Evening_6_12
 + Evening_6_13 + Evening_6_14 + Evening_6_15 + Evening_6_16 + Evening_6_17
 + Evening_6_18 + Evening_6_19 + Evening_6_2 + Evening_6_20 + Evening_6_21
 + Evening_6_22 + Evening_6_23 + Evening_6_3 + Evening_6_4 + Evening_6_5
 + Evening_6_6 + Evening_6_7 + Evening_6_8 + Evening_6_9 <= 2
_C7: Afternoon_0_6 + Afternoon_1_6 + Afternoon_2_6 + Afternoon_3_6
 + Afternoon_4_6 + Afternoon_5_6 + Afternoon_6_6 + Evening_0_6 + Evening_1_6
 + Evening_2_6 + Evening_3_6 + Evening_4_6 + Evening_5_6 + Evening_6_6
 + Morning_0_6 + Morning_1_6 + Morning_2_6 + Morning_3_6 + Morning_4_6
 + Morning_5_6 + Morning_6_6 = 1
_C8: Afternoon_0_7 + Afternoon_1_7 + Afternoon_2_7 + Afternoon_3_7
 + Afternoon_4_7 + Afternoon_5_7 + Afternoon_6_7 + Evening_0_7 + Evening_1_7
 + Evening_2_7 + Evening_3_7 + Evening_4_7 + Evening_5_7 + Evening_6_7
 + Morning_0_7 + Morning_1_7 + Morning_2_7 + Morning_3_7 + Morning_4_7
 + Morning_5_7 + Morning_6_7 = 1
_C9: Afternoon_0_8 + Afternoon_1_8 + Afternoon_2_8 + Afternoon_3_8
 + Afternoon_4_8 + Afternoon_5_8 + Afternoon_6_8 + Evening_0_8 + Evening_1_8
 + Evening_2_8 + Evening_3_8 + Evening_4_8 + Evening_5_8 + Evening_6_8
 + Morning_0_8 + Morning_1_8 + Morning_2_8 + Morning_3_8 + Morning_4_8
 + Morning_5_8 + Morning_6_8 = 1
Binaries
Afternoon_0_0
Afternoon_0_1
Afternoon_0_10
Afternoon_0_11
Afternoon_0_12
Afternoon_0_13
Afternoon_0_14
Afternoon_0_15
Afternoon_0_16
Afternoon_0_17
Afternoon_0_18
Afternoon_0_19
Afternoon_0_2
Afternoon_0_20
Afternoon_0_21
Afternoon_0_22
Afternoon_0_23
Afternoon_0_3
Afternoon_0_4
Afternoon_0_5
Afternoon_0_6
Afternoon_0_7
Afternoon_0_8
Afternoon_0_9
Afternoon_1_0
Afternoon_1_1
Afternoon_1_10
Afternoon_1_11
Afternoon_1_12
Afternoon_1_13
Afternoon_1_14
Afternoon_1_15
Afternoon_1_16
Afternoon_1_17
Afternoon_1_18
Afternoon_1_19
Afternoon_1_2
Afternoon_1_20
Afternoon_1_21
Afternoon_1_22
Afternoon_1_23
Afternoon_1_3
Afternoon_1_4
Afternoon_1_5
Afternoon_1_6
Afternoon_1_7
Afternoon_1_8
Afternoon_1_9
Afternoon_2_0
Afternoon_2_1
Afternoon_2_10
Afternoon_2_11
Afternoon_2_12
Afternoon_2_13
Afternoon_2_14
Afternoon_2_15
Afternoon_2_16
Afternoon_2_17
Afternoon_2_18
Afternoon_2_19
Afternoon_2_2
Afternoon_2_20
Afternoon_2_21
Afternoon_2_22
Afternoon_2_23
Afternoon_2_3
Afternoon_2_4
Afternoon_2_5
Afternoon_2_6
Afternoon_2_7
Afternoon_2_8
Afternoon_2_9
Afternoon_3_0
Afternoon_3_1
Afternoon_3_10
Afternoon_3_11
Afternoon_3_12
Afternoon_3_13
Afternoon_3_14
Afternoon_3_15
Afternoon_3_16
Afternoon_3_17
Afternoon_3_18
Afternoon_3_19
Afternoon_3_2
Afternoon_3_20
Afternoon_3_21
Afternoon_3_22
Afternoon_3_23
Afternoon_3_3
Afternoon_3_4
Afternoon_3_5
Afternoon_3_6
Afternoon_3_7
Afternoon_3_8
Afternoon_3_9
Afternoon_4_0
Afternoon_4_1
Afternoon_4_10
Afternoon_4_11
Afternoon_4_12
Afternoon_4_13
Afternoon_4_14
Afternoon_4_15
Afternoon_4_16
Afternoon_4_17
Afternoon_4_18
Afternoon_4_19
Afternoon_4_2
Afternoon_4_20
Afternoon_4_21
Afternoon_4_22
Afternoon_4_23
Afternoon_4_3
Afternoon_4_4
Afternoon_4_5
Afternoon_4_6
Afternoon_4_7
Afternoon_4_8
Afternoon_4_9
Afternoon_5_0
Afternoon_5_1
Afternoon_5_10
Afternoon_5_11
Afternoon_5_12
Afternoon_5_13
Afternoon_5_14
Afternoon_5_15
Afternoon_5_16
Afternoon_5_17
Afternoon_5_18
Afternoon_5_19
Afternoon_5_2
Afternoon_5_20
Afternoon_5_21
Afternoon_5_22
Afternoon_5_23
Afternoon_5_3
Afternoon_5_4
Afternoon_5_5
Afternoon_5_6
Afternoon_5_7
Afternoon_5_8
Afternoon_5_9
Afternoon_6_0
Afternoon_6_1
Afternoon_6_10
Afternoon_6_11
Afternoon_6_12
Afternoon_6_13
Afternoon_6_14
Afternoon_6_15
Afternoon_6_16
Afternoon_6_17
Afternoon_6_18
Afternoon_6_19
Afternoon_6_2
Afternoon_6_20
Afternoon_6_21
Afternoon_6_22
Afternoon_6_23
Afternoon_6_3
Afternoon_6_4
Afternoon_6_5
Afternoon_6_6
Afternoon_6_7
Afternoon_6_8
Afternoon_6_9
Evening_0_0
Evening_0_1
Evening_0_10
Evening_0_11
Evening_0_12
Evening_0_13
Evening_0_14
Evening_0_15
Evening_0_16
Evening_0_17
Evening_0_18
Evening_0_19
Evening_0_2
Evening_0_20
Evening_0_21
Evening_0_22
Evening_0_23
Evening_0_3
Evening_0_4
Evening_0_5
Evening_0_6
Evening_0_7
Evening_0_8
Evening_0_9
Evening_1_0
Evening_1_1
Evening_1_10
Evening_1_11
Evening_1_12
Evening_1_13
Evening_1_14
Evening_1_15
Evening_1_16
Evening_1_17
Evening_1_18
Evening_1_19
Evening_1_2
Evening_1_20
Evening_1_21
Evening_1_22
Evening_1_23
Evening_1_3
Evening_1_4
Evening_1_5
Evening_1_6
Evening_1_7
Evening_1_8
Evening_1_9
Evening_2_0
Evening_2_1
Evening_2_10
Evening_2_11
Evening_2_12
Evening_2_13
Evening_2_14
Evening_2_15
Evening_2_16
Evening_2_17
Evening_2_18
Evening_2_19
Evening_2_2
Evening_2_20
Evening_2_21
Evening_2_22
Evening_2_23
Evening_2_3
Evening_2_4
Evening_2_5
Evening_2_6
Evening_2_7
Evening_2_8
Evening_2_9
Evening_3_0
Evening_3_1
Evening_3_10
Evening_3_11
Evening_3_12
Evening_3_13
Evening_3_14
Evening_3_15
Evening_3_16
Evening_3_17
Evening_3_18
Evening_3_19
Evening_3_2
Evening_3_20
Evening_3_21
Evening_3_22
Evening_3_23
Evening_3_3
Evening_3_4
Evening_3_5
Evening_3_6
Evening_3_7
Evening_3_8
Evening_3_9
Evening_4_0
Evening_4_1
Evening_4_10
Evening_4_11
Evening_4_12
Evening_4_13
Evening_4_14
Evening_4_15
Evening_4_16
Evening_4_17
Evening_4_18
Evening_4_19
Evening_4_2
Evening_4_20
Evening_4_21
Evening_4_22
Evening_4_23
Evening_4_3
Evening_4_4
Evening_4_5
Evening_4_6
Evening_4_7
Evening_4_8
Evening_4_9
Evening_5_0
Evening_5_1
Evening_5_10
Evening_5_11
Evening_5_12
Evening_5_13
Evening_5_14
Evening_5_15
Evening_5_16
Evening_5_17
Evening_5_18
Evening_5_19
Evening_5_2
Evening_5_20
Evening_5_21
Evening_5_22
Evening_5_23
Evening_5_3
Evening_5_4
Evening_5_5
Evening_5_6
Evening_5_7
Evening_5_8
Evening_5_9
Evening_6_0
Evening_6_1
Evening_6_10
Evening_6_11
Evening_6_12
Evening_6_13
Evening_6_14
Evening_6_15
Evening_6_16
Evening_6_17
Evening_6_18
Evening_6_19
Evening_6_2
Evening_6_20
Evening_6_21
Evening_6_22
Evening_6_23
Evening_6_3
Evening_6_4
Evening_6_5
Evening_6_6
Evening_6_7
Evening_6_8
Evening_6_9
Morning_0_0
Morning_0_1
Morning_0_10
Morning_0_11
Morning_0_12
Morning_0_13
Morning_0_14
Morning_0_15
Morning_0_16
Morning_0_17
Morning_0_18
Morning_0_19
Morning_0_2
Morning_0_20
Morning_0_21
Morning_0_22
Morning_0_23
Morning_0_3
Morning_0_4
Morning_0_5
Morning_0_6
Morning_0_7
Morning_0_8
Morning_0_9
Morning_1_0
Morning_1_1
Morning_1_10
Morning_1_11
Morning_1_12
Morning_1_13
Morning_1_14
Morning_1_15
Morning_1_16
Morning_1_17
Morning_1_18
Morning_1_19
Morning_1_2
Morning_1_20
Morning_1_21
Morning_1_22
Morning_1_23
Morning_1_3
Morning_1_4
Morning_1_5
Morning_1_6
Morning_1_7
Morning_1_8
Morning_1_9
Morning_2_0
Morning_2_1
Morning_2_10
Morning_2_11
Morning_2_12
Morning_2_13
Morning_2_14
Morning_2_15
Morning_2_16
Morning_2_17
Morning_2_18
Morning_2_19
Morning_2_2
Morning_2_20
Morning_2_21
Morning_2_22
Morning_2_23
Morning_2_3
Morning_2_4
Morning_2_5
Morning_2_6
Morning_2_7
Morning_2_8
Morning_2_9
Morning_3_0
Morning_3_1
Morning_3_10
Morning_3_11
Morning_3_12
Morning_3_13
Morning_3_14
Morning_3_15
Morning_3_16
Morning_3_17
Morning_3_18
Morning_3_19
Morning_3_2
Morning_3_20
Morning_3_21
Morning_3_22
Morning_3_23
Morning_3_3
Morning_3_4
Morning_3_5
Morning_3_6
Morning_3_7
Morning_3_8
Morning_3_9
Morning_4_0
Morning_4_1
Morning_4_10
Morning_4_11
Morning_4_12
Morning_4_13
Morning_4_14
Morning_4_15
Morning_4_16
Morning_4_17
Morning_4_18
Morning_4_19
Morning_4_2
Morning_4_20
Morning_4_21
Morning_4_22
Morning_4_23
Morning_4_3
Morning_4_4
Morning_4_5
Morning_4_6
Morning_4_7
Morning_4_8
Morning_4_9
Morning_5_0
Morning_5_1
Morning_5_10
Morning_5_11
Morning_5_12
Morning_5_13
Morning_5_14
Morning_5_15
Morning_5_16
Morning_5_17
Morning_5_18
Morning_5_19
Morning_5_2
Morning_5_20
Morning_5_21
Morning_5_22
Morning_5_23
Morning_5_3
Morning_5_4
Morning_5_5
Morning_5_6
Morning_5_7
Morning_5_8
Morning_5_9
Morning_6_0
Morning_6_1
Morning_6_10
Morning_6_11
Morning_6_12
Morning_6_13
Morning_6_14
Morning_6_15
Morning_6_16
Morning_6_17
Morning_6_18
Morning_6_19
Morning_6_2
Morning_6_20
Morning_6_21
Morning_6_22
Morning_6_23
Morning_6_3
Morning_6_4
Morning_6_5
Morning_6_6
Morning_6_7
Morning_6_8
Morning_6_9
End
